<?xml version = "1.0" encoding="UTF-8" standalone="yes"?>
<CPLEXSolution version="1.2">
 <header
   problemName=""
   solutionName="p0"
   solutionIndex="-1"
   objectiveValue="33"
   solutionTypeValue="3"
   solutionTypeString="primal"
   solutionStatusValue="127"
   solutionStatusString="integer feasible solution"
   solutionMethodString="mip"
   primalFeasible="0"
   dualFeasible="0"
   writeLevel="1"/>
 <quality
   epInt="1.0000000000000001e-05"
   epRHS="9.9999999999999995e-07"
   maxIntInfeas="0"
   maxPrimalInfeas="0"
   maxX="77"
   maxSlack="16"/>
 <linearConstraints>
  <constraint index="0" slack="-16"/>
  <constraint index="1" slack="-6"/>
  <constraint index="2" slack="-8"/>
  <constraint index="3" slack="0"/>
  <constraint index="4" slack="-9"/>
  <constraint index="5" slack="-7"/>
  <constraint index="6" slack="0"/>
  <constraint index="7" slack="0"/>
  <constraint index="8" slack="-2"/>
  <constraint index="9" slack="0"/>
  <constraint index="10" slack="0"/>
  <constraint index="11" slack="0"/>
  <constraint index="12" slack="0"/>
  <constraint index="13" slack="0"/>
  <constraint index="14" slack="0"/>
  <constraint index="15" slack="0"/>
  <constraint index="16" slack="0"/>
  <constraint index="17" slack="0"/>
  <constraint index="18" slack="0"/>
  <constraint index="19" slack="0"/>
  <constraint index="20" slack="0"/>
  <constraint index="21" slack="0"/>
  <constraint index="22" slack="0"/>
  <constraint index="23" slack="0"/>
  <constraint index="24" slack="0"/>
  <constraint index="25" slack="0"/>
  <constraint index="26" slack="0"/>
  <constraint index="27" slack="0"/>
  <constraint index="28" slack="0"/>
  <constraint index="29" slack="0"/>
  <constraint index="30" slack="0"/>
  <constraint index="31" slack="0"/>
  <constraint index="32" slack="0"/>
  <constraint index="33" slack="0"/>
  <constraint index="34" slack="0"/>
  <constraint index="35" slack="0"/>
  <constraint index="36" slack="0"/>
  <constraint index="37" slack="0"/>
  <constraint index="38" slack="0"/>
  <constraint index="39" slack="0"/>
  <constraint index="40" slack="0"/>
  <constraint index="41" slack="-2"/>
  <constraint index="42" slack="0"/>
  <constraint index="43" slack="-11"/>
  <constraint index="44" slack="-5"/>
 </linearConstraints>
 <variables>
  <variable name="x_0_0" index="0" value="5"/>
  <variable name="x_0_1" index="1" value="16"/>
  <variable name="x_0_2" index="2" value="0"/>
  <variable name="x_0_3" index="3" value="6"/>
  <variable name="x_0_4" index="4" value="21"/>
  <variable name="x_1_0" index="5" value="22"/>
  <variable name="x_1_1" index="6" value="0"/>
  <variable name="x_1_2" index="7" value="25"/>
  <variable name="x_1_3" index="8" value="16"/>
  <variable name="x_1_4" index="9" value="8"/>
  <variable name="x_2_0" index="10" value="31"/>
  <variable name="x_2_1" index="11" value="21"/>
  <variable name="x_2_2" index="12" value="14"/>
  <variable name="x_2_3" index="13" value="2"/>
  <variable name="x_2_4" index="14" value="18"/>
  <variable name="z_0_0_1" index="15" value="1"/>
  <variable name="z_0_0_2" index="16" value="0"/>
  <variable name="z_0_0_3" index="17" value="1"/>
  <variable name="z_0_0_4" index="18" value="1"/>
  <variable name="z_0_1_2" index="19" value="0"/>
  <variable name="z_0_1_3" index="20" value="0"/>
  <variable name="z_0_1_4" index="21" value="1"/>
  <variable name="z_0_2_3" index="22" value="1"/>
  <variable name="z_0_2_4" index="23" value="1"/>
  <variable name="z_0_3_4" index="24" value="1"/>
  <variable name="z_1_0_1" index="25" value="0"/>
  <variable name="z_1_0_2" index="26" value="1"/>
  <variable name="z_1_0_3" index="27" value="0"/>
  <variable name="z_1_0_4" index="28" value="0"/>
  <variable name="z_1_1_2" index="29" value="1"/>
  <variable name="z_1_1_3" index="30" value="1"/>
  <variable name="z_1_1_4" index="31" value="1"/>
  <variable name="z_1_2_3" index="32" value="0"/>
  <variable name="z_1_2_4" index="33" value="0"/>
  <variable name="z_1_3_4" index="34" value="0"/>
  <variable name="z_2_0_1" index="35" value="0"/>
  <variable name="z_2_0_2" index="36" value="0"/>
  <variable name="z_2_0_3" index="37" value="0"/>
  <variable name="z_2_0_4" index="38" value="0"/>
  <variable name="z_2_1_2" index="39" value="0"/>
  <variable name="z_2_1_3" index="40" value="0"/>
  <variable name="z_2_1_4" index="41" value="0"/>
  <variable name="z_2_2_3" index="42" value="0"/>
  <variable name="z_2_2_4" index="43" value="1"/>
  <variable name="z_2_3_4" index="44" value="1"/>
  <variable name="cmax" index="45" value="33"/>
  <variable name="q_0_0_1" index="46" value="68"/>
  <variable name="q_0_0_2" index="47" value="0"/>
  <variable name="q_0_0_3" index="48" value="73"/>
  <variable name="q_0_0_4" index="49" value="61"/>
  <variable name="q_0_1_2" index="50" value="11"/>
  <variable name="q_0_1_3" index="51" value="0"/>
  <variable name="q_0_1_4" index="52" value="72"/>
  <variable name="q_0_2_3" index="53" value="68"/>
  <variable name="q_0_2_4" index="54" value="56"/>
  <variable name="q_0_3_4" index="55" value="62"/>
  <variable name="q_1_0_1" index="56" value="14"/>
  <variable name="q_1_0_2" index="57" value="73"/>
  <variable name="q_1_0_3" index="58" value="0"/>
  <variable name="q_1_0_4" index="59" value="6"/>
  <variable name="q_1_1_2" index="60" value="51"/>
  <variable name="q_1_1_3" index="61" value="62"/>
  <variable name="q_1_1_4" index="62" value="68"/>
  <variable name="q_1_2_3" index="63" value="3"/>
  <variable name="q_1_2_4" index="64" value="9"/>
  <variable name="q_1_3_4" index="65" value="0"/>
  <variable name="q_2_0_1" index="66" value="0"/>
  <variable name="q_2_0_2" index="67" value="13"/>
  <variable name="q_2_0_3" index="68" value="25"/>
  <variable name="q_2_0_4" index="69" value="10"/>
  <variable name="q_2_1_2" index="70" value="3"/>
  <variable name="q_2_1_3" index="71" value="15"/>
  <variable name="q_2_1_4" index="72" value="0"/>
  <variable name="q_2_2_3" index="73" value="8"/>
  <variable name="q_2_2_4" index="74" value="77"/>
  <variable name="q_2_3_4" index="75" value="65"/>
 </variables>
</CPLEXSolution>
